language Essence 1.3

letting pos be
        function((1, 1) --> 1, (1, 2) --> 3, (1, 3) --> 5, (2, 1) --> 4, (2, 2) --> 7, (2, 3) --> 10, (3, 1) --> 17,
                 (3, 2) --> 21, (3, 3) --> 25, (4, 1) --> 8, (4, 2) --> 13, (4, 3) --> 18, (5, 1) --> 14, (5, 2) --> 20,
                 (5, 3) --> 26, (6, 1) --> 9, (6, 2) --> 16, (6, 3) --> 23, (7, 1) --> 11, (7, 2) --> 19, (7, 3) --> 27,
                 (8, 1) --> 6, (8, 2) --> 15, (8, 3) --> 24, (9, 1) --> 2, (9, 2) --> 12, (9, 3) --> 22)
